(set-logic HORN)
(declare-datatypes ((Nat_1 0)) (((Z_1 ) (S_1 (unS_0 Nat_1)))))
(declare-fun diseqNat_0 (Nat_1 Nat_1) Bool)
(declare-fun unS_1 (Nat_1 Nat_1) Bool)
(declare-fun isZ_0 (Nat_1) Bool)
(declare-fun isS_0 (Nat_1) Bool)
(assert (forall ((x_33 Nat_1) (x_32 Nat_1))
	(=> (= x_33 (S_1 x_32))
	    (unS_1 x_32 x_33))))
(assert (isZ_0 Z_1))
(assert (forall ((x_34 Nat_1))
	(isS_0 (S_1 x_34))))
(assert (forall ((x_35 Nat_1))
	(diseqNat_0 Z_1 (S_1 x_35))))
(assert (forall ((x_36 Nat_1))
	(diseqNat_0 (S_1 x_36) Z_1)))
(assert (forall ((x_37 Nat_1) (x_38 Nat_1))
	(=> (diseqNat_0 x_37 x_38)
	    (diseqNat_0 (S_1 x_37) (S_1 x_38)))))
(declare-fun add_0 (Nat_1 Nat_1 Nat_1) Bool)
(declare-fun minus_0 (Nat_1 Nat_1 Nat_1) Bool)
(declare-fun le_0 (Nat_1 Nat_1) Bool)
(declare-fun ge_0 (Nat_1 Nat_1) Bool)
(declare-fun lt_0 (Nat_1 Nat_1) Bool)
(declare-fun gt_0 (Nat_1 Nat_1) Bool)
(declare-fun mult_0 (Nat_1 Nat_1 Nat_1) Bool)
(declare-fun div_0 (Nat_1 Nat_1 Nat_1) Bool)
(declare-fun mod_0 (Nat_1 Nat_1 Nat_1) Bool)
(assert (forall ((y_4 Nat_1))
	(add_0 y_4 Z_1 y_4)))
(assert (forall ((x_30 Nat_1) (y_4 Nat_1) (r_0 Nat_1))
	(=> (add_0 r_0 x_30 y_4)
	    (add_0 (S_1 r_0) (S_1 x_30) y_4))))
(assert (forall ((y_4 Nat_1))
	(minus_0 Z_1 Z_1 y_4)))
(assert (forall ((x_30 Nat_1) (y_4 Nat_1) (r_0 Nat_1))
	(=> (minus_0 r_0 x_30 y_4)
	    (minus_0 (S_1 r_0) (S_1 x_30) y_4))))
(assert (forall ((y_4 Nat_1))
	(le_0 Z_1 y_4)))
(assert (forall ((x_30 Nat_1) (y_4 Nat_1))
	(=> (le_0 x_30 y_4)
	    (le_0 (S_1 x_30) (S_1 y_4)))))
(assert (forall ((y_4 Nat_1))
	(ge_0 y_4 Z_1)))
(assert (forall ((x_30 Nat_1) (y_4 Nat_1))
	(=> (ge_0 x_30 y_4)
	    (ge_0 (S_1 x_30) (S_1 y_4)))))
(assert (forall ((y_4 Nat_1))
	(lt_0 Z_1 (S_1 y_4))))
(assert (forall ((x_30 Nat_1) (y_4 Nat_1))
	(=> (lt_0 x_30 y_4)
	    (lt_0 (S_1 x_30) (S_1 y_4)))))
(assert (forall ((y_4 Nat_1))
	(gt_0 (S_1 y_4) Z_1)))
(assert (forall ((x_30 Nat_1) (y_4 Nat_1))
	(=> (gt_0 x_30 y_4)
	    (gt_0 (S_1 x_30) (S_1 y_4)))))
(assert (forall ((y_4 Nat_1))
	(mult_0 Z_1 Z_1 y_4)))
(assert (forall ((x_30 Nat_1) (y_4 Nat_1) (r_0 Nat_1) (z_3 Nat_1))
	(=>	(and (mult_0 r_0 x_30 y_4)
			(add_0 z_3 r_0 y_4))
		(mult_0 z_3 (S_1 x_30) y_4))))
(assert (forall ((x_30 Nat_1) (y_4 Nat_1))
	(=> (lt_0 x_30 y_4)
	    (div_0 Z_1 x_30 y_4))))
(assert (forall ((x_30 Nat_1) (y_4 Nat_1) (r_0 Nat_1) (z_3 Nat_1))
	(=>	(and (ge_0 x_30 y_4)
			(minus_0 z_3 x_30 y_4)
			(div_0 r_0 z_3 y_4))
		(div_0 (S_1 r_0) x_30 y_4))))
(assert (forall ((x_30 Nat_1) (y_4 Nat_1))
	(=> (lt_0 x_30 y_4)
	    (mod_0 x_30 x_30 y_4))))
(assert (forall ((x_30 Nat_1) (y_4 Nat_1) (r_0 Nat_1) (z_3 Nat_1))
	(=>	(and (ge_0 x_30 y_4)
			(minus_0 z_3 x_30 y_4)
			(mod_0 r_0 z_3 y_4))
		(mod_0 r_0 x_30 y_4))))
(declare-datatypes ((list_0 0)) (((nil_0 ) (cons_0 (head_0 Nat_1) (tail_0 list_0)))))
(declare-fun diseqlist_0 (list_0 list_0) Bool)
(declare-fun head_1 (Nat_1 list_0) Bool)
(declare-fun tail_1 (list_0 list_0) Bool)
(declare-fun isnil_0 (list_0) Bool)
(declare-fun iscons_0 (list_0) Bool)
(assert (forall ((x_42 list_0) (x_40 Nat_1) (x_41 list_0))
	(=> (= x_42 (cons_0 x_40 x_41))
	    (head_1 x_40 x_42))))
(assert (forall ((x_42 list_0) (x_40 Nat_1) (x_41 list_0))
	(=> (= x_42 (cons_0 x_40 x_41))
	    (tail_1 x_41 x_42))))
(assert (isnil_0 nil_0))
(assert (forall ((x_43 Nat_1) (x_44 list_0))
	(iscons_0 (cons_0 x_43 x_44))))
(assert (forall ((x_45 Nat_1) (x_46 list_0))
	(diseqlist_0 nil_0 (cons_0 x_45 x_46))))
(assert (forall ((x_47 Nat_1) (x_48 list_0))
	(diseqlist_0 (cons_0 x_47 x_48) nil_0)))
(assert (forall ((x_49 Nat_1) (x_50 list_0) (x_51 Nat_1) (x_52 list_0))
	(=> (diseqNat_0 x_49 x_51)
	    (diseqlist_0 (cons_0 x_49 x_50) (cons_0 x_51 x_52)))))
(assert (forall ((x_49 Nat_1) (x_50 list_0) (x_51 Nat_1) (x_52 list_0))
	(=> (diseqlist_0 x_50 x_52)
	    (diseqlist_0 (cons_0 x_49 x_50) (cons_0 x_51 x_52)))))
(declare-datatypes ((Nat_0 0)) (((Z_0 ) (S_0 (projS_0 Nat_0)))))
(declare-fun diseqNat_1 (Nat_0 Nat_0) Bool)
(declare-fun projS_1 (Nat_0 Nat_0) Bool)
(declare-fun isZ_1 (Nat_0) Bool)
(declare-fun isS_1 (Nat_0) Bool)
(assert (forall ((x_55 Nat_0) (x_54 Nat_0))
	(=> (= x_55 (S_0 x_54))
	    (projS_1 x_54 x_55))))
(assert (isZ_1 Z_0))
(assert (forall ((x_56 Nat_0))
	(isS_1 (S_0 x_56))))
(assert (forall ((x_57 Nat_0))
	(diseqNat_1 Z_0 (S_0 x_57))))
(assert (forall ((x_58 Nat_0))
	(diseqNat_1 (S_0 x_58) Z_0)))
(assert (forall ((x_59 Nat_0) (x_60 Nat_0))
	(=> (diseqNat_1 x_59 x_60)
	    (diseqNat_1 (S_0 x_59) (S_0 x_60)))))
(declare-fun take_0 (list_0 Nat_0 list_0) Bool)
(assert (forall ((x_0 Nat_0) (y_0 list_0) (z_0 Nat_0) (x_1 Nat_1) (x_2 list_0) (x_9 list_0) (x_10 list_0))
	(=>	(and (= x_9 (cons_0 x_1 x_10))
			(take_0 x_10 z_0 x_2)
			(= x_0 (S_0 z_0))
			(= y_0 (cons_0 x_1 x_2)))
		(take_0 x_9 x_0 y_0))))
(assert (forall ((x_0 Nat_0) (y_0 list_0) (z_0 Nat_0) (x_11 list_0))
	(=>	(and (= x_11 nil_0)
			(= x_0 (S_0 z_0))
			(= y_0 nil_0))
		(take_0 x_11 x_0 y_0))))
(assert (forall ((x_0 Nat_0) (y_0 list_0) (x_12 list_0))
	(=>	(and (= x_12 nil_0)
			(= x_0 Z_0))
		(take_0 x_12 x_0 y_0))))
(declare-fun len_0 (Nat_0 list_0) Bool)
(assert (forall ((x_3 list_0) (y_1 Nat_1) (xs_0 list_0) (x_13 Nat_0) (x_14 Nat_0))
	(=>	(and (= x_13 (S_0 x_14))
			(len_0 x_14 xs_0)
			(= x_3 (cons_0 y_1 xs_0)))
		(len_0 x_13 x_3))))
(assert (forall ((x_3 list_0) (x_15 Nat_0))
	(=>	(and (= x_15 Z_0)
			(= x_3 nil_0))
		(len_0 x_15 x_3))))
(declare-fun x_4 (Nat_0 Nat_0 Nat_0) Bool)
(assert (forall ((x_5 Nat_0) (y_2 Nat_0) (z_1 Nat_0) (x_6 Nat_0) (x_16 Nat_0) (x_17 Nat_0))
	(=>	(and (= x_16 x_17)
			(x_4 x_17 z_1 x_6)
			(= x_5 (S_0 z_1))
			(= y_2 (S_0 x_6)))
		(x_4 x_16 x_5 y_2))))
(assert (forall ((x_5 Nat_0) (y_2 Nat_0) (z_1 Nat_0) (x_18 Nat_0))
	(=>	(and (= x_18 (S_0 z_1))
			(= x_5 (S_0 z_1))
			(= y_2 Z_0))
		(x_4 x_18 x_5 y_2))))
(assert (forall ((x_5 Nat_0) (y_2 Nat_0) (x_19 Nat_0))
	(=>	(and (= x_19 Z_0)
			(= x_5 Z_0))
		(x_4 x_19 x_5 y_2))))
(declare-fun x_7 (list_0 list_0 list_0) Bool)
(assert (forall ((x_8 list_0) (y_3 list_0) (z_2 Nat_1) (xs_1 list_0) (x_20 list_0) (x_21 list_0))
	(=>	(and (= x_20 (cons_0 z_2 x_21))
			(x_7 x_21 xs_1 y_3)
			(= x_8 (cons_0 z_2 xs_1)))
		(x_7 x_20 x_8 y_3))))
(assert (forall ((x_8 list_0) (y_3 list_0) (x_22 list_0))
	(=>	(and (= x_22 y_3)
			(= x_8 nil_0))
		(x_7 x_22 x_8 y_3))))
(assert (forall ((n_0 Nat_0) (xs_2 list_0) (ys_0 list_0) (x_23 list_0) (x_24 list_0) (x_25 list_0) (x_26 Nat_0) (x_27 Nat_0) (x_28 list_0) (x_29 list_0))
	(=>	(and (diseqlist_0 x_24 x_29)
			(x_7 x_23 xs_2 ys_0)
			(take_0 x_24 n_0 x_23)
			(take_0 x_25 n_0 xs_2)
			(len_0 x_26 xs_2)
			(x_4 x_27 n_0 x_26)
			(take_0 x_28 x_27 ys_0)
			(x_7 x_29 x_25 x_28))
		false)))
(check-sat)
